# TITLE - LPTEST01
# DATASET 1A - DIMENSIONS AND PRELIMINARIES
# NREACHES ISWRONLY ILPRCBC ILPRPFL ILPRSTG ILPRBFL ISWRPQM ISWRPSTR ISWRFRN Option
         1        1       0    -101    -102     000       0        0       0

# DATASET 2  - SOLUTION CONTROLS
#DLENCONV TIMECONV      RTINI      RTMIN      RTMAX      RTPRN TMULT NMULT DMINGRAD DMNDEPTH DMAXRAI DMAXSTG DMAXINF
      1.0      1.0      600.0      600.0      600.0      600.0  1.00     1      0.0      0.0 10000.0     0.0     0.0
#     1.0      1.0       60.0       60.0       60.0       60.0  1.00     1      0.0      0.0 10000.0     0.0     0.0

# DATASET 3 - SOLVER PARAMETERS
# SOLVER NOUTER NINNER IBT    TOLX    TOLF    TOLA DAMPSS DAMPTR IPRSWR MUTSWR IPC NLEVELS DROPTOL IBTPRT
       1     30    001   0 1.0E-09 1.0E-09    0.00    1.0    1.0      0      3                          1

# DATASET 4A - REACH LOCATION DATA
# REACH IEQN ICENUM LAY ROW COL LENGTH
      1    1      1   1   1   1     1. 
      
# DATASET 4B - REACH CONNECTIVITY DATA
# REACH NCONN ICONN
      1     0     


# DATASET 5 - STRESS PERIOD 1
# ITMP IRDBND IRDRAI IRDEVP IRDLIN IRDGEO IRDSTR IRDSTG IPTFLG
     1      1      0      0      1      1      1      1      1

# DATASET 6 - BOUNDARY DATA
# IBNDRCH ISWRBND
       01       1  

# DATASET 7 - REACH STRESS DATA
# DATASET 7A
# IRAIRCH  RAIN

# DATASET 7B
# IEVPRCH   EVAP

# DATASET 7C
# ILAIRCH      QLATFLOW
       01           0.0

# DATASET 8 - GEOMETRY DATA
# DATASET 8A
INTERNAL
#IGMODRCH IGEONUM GZSHIFT 
       01       1     0.0   

# DATASET 8B - GEOMETRY DATA
# IGEONUM IGEOTYPE IGLKOPT GMANNING NGEOPTS GWIDTH  GBELEV   GSSLOPE    GCOND      GLK   GLKLEN GLKFACT  
        1        4       0      1.0      13                           0.00000
# DATASET 8C - GEOMETRY DATA
# RESERVOIR GEOMETRY FROM BEDIENT AND HUBER 1988
# ELEV    VOLUME    WP SAREA XAREA
#    M        M3
  1.52      0.00  1.00  2.00  3.00
  1.83   1233.52  1.00  2.00  3.00
  2.13   2467.03  1.00  2.00  3.00
  2.44   3700.55  1.00  2.00  3.00
  2.74   4934.06  1.00  2.00  3.00
  3.05   6167.58  1.00  2.00  3.00
  3.35   7401.09  1.00  2.00  3.00
  3.66   9251.37  1.00  2.00  3.00
  3.96  12951.91  1.00  2.00  3.00
  4.27  14802.19  1.00  2.00  3.00
  4.57  16652.46  1.00  2.00  3.00
  4.88  24670.31  1.00  2.00  3.00
  5.18  27137.34  1.00  2.00  3.00

# DATASET 9 - STRUCTURE DATA
# DATASET 9A
#ISMODRCH NSTRUCT 
        1       1   

# DATASET 9B
#ISTRRCH ISTRNUM ISTRCONN ISTRTYPE NSTRPTS STRCD STRCD2 STRCD2 STRINV STRINV2 STRWID STRWID2 STRLEN STRMAN STRVAL ISTRDIR 
       1       1        0        4      13  
# ELEV  DISCHARGE
  1.52       0.00
  1.83       0.42
  2.13       0.91
  2.44       1.56
  2.74       2.55
  3.05       3.54
  3.35       4.47
  3.66       5.24
  3.96       5.95
  4.27       6.51
  4.57       7.08
  4.88       7.65
  5.18       8.21

# DATASET 10 - REACH STAGE DATA
INTERNAL
# IRCHSTG STAGE
        1  1.52

# DATASET 5 - STRESS PERIOD 2
# ITMP IRDBND IRDRAI IRDEVP IRDLIN IRDGEO IRDSTR IRDSTG IPTFLG
     1      0      0      0      1      0      0      0      1
# DATASET 7C
# ILAIRCH      QLATFLOW
       01          1.70

# DATASET 5 - STRESS PERIOD 3
# ITMP IRDBND IRDRAI IRDEVP IRDLIN IRDGEO IRDSTR IRDSTG IPTFLG
     1      0      0      0      1      0      0      0      1
# DATASET 7C
# ILAIRCH      QLATFLOW
       01          3.40

# DATASET 5 - STRESS PERIOD 4
# ITMP IRDBND IRDRAI IRDEVP IRDLIN IRDGEO IRDSTR IRDSTG IPTFLG
     1      0      0      0      1      0      0      0      1
# DATASET 7C
# ILAIRCH      QLATFLOW
       01          5.10

# DATASET 5 - STRESS PERIOD 5
# ITMP IRDBND IRDRAI IRDEVP IRDLIN IRDGEO IRDSTR IRDSTG IPTFLG
     1      0      0      0      1      0      0      0      1
# DATASET 7C
# ILAIRCH      QLATFLOW
       01          6.80

# DATASET 5 - STRESS PERIOD 6
# ITMP IRDBND IRDRAI IRDEVP IRDLIN IRDGEO IRDSTR IRDSTG IPTFLG
     1      0      0      0      1      0      0      0      1
# DATASET 7C
# ILAIRCH      QLATFLOW
       01          8.50
 
# DATASET 5 - STRESS PERIOD 7
# ITMP IRDBND IRDRAI IRDEVP IRDLIN IRDGEO IRDSTR IRDSTG IPTFLG
     1      0      0      0      1      0      0      0      1
# DATASET 7C
# ILAIRCH      QLATFLOW
       01         10.19
 
# DATASET 5 - STRESS PERIOD 8
# ITMP IRDBND IRDRAI IRDEVP IRDLIN IRDGEO IRDSTR IRDSTG IPTFLG
     1      0      0      0      1      0      0      0      1
# DATASET 7C
# ILAIRCH      QLATFLOW
       01          9.06
 
# DATASET 5 - STRESS PERIOD 9
# ITMP IRDBND IRDRAI IRDEVP IRDLIN IRDGEO IRDSTR IRDSTG IPTFLG
     1      0      0      0      1      0      0      0      1
# DATASET 7C
# ILAIRCH      QLATFLOW
       01          7.93
 
# DATASET 5 - STRESS PERIOD 10
# ITMP IRDBND IRDRAI IRDEVP IRDLIN IRDGEO IRDSTR IRDSTG IPTFLG
     1      0      0      0      1      0      0      0      1
# DATASET 7C
# ILAIRCH      QLATFLOW
       01          6.80
 
# DATASET 5 - STRESS PERIOD 11
# ITMP IRDBND IRDRAI IRDEVP IRDLIN IRDGEO IRDSTR IRDSTG IPTFLG
     1      0      0      0      1      0      0      0      1
# DATASET 7C
# ILAIRCH      QLATFLOW
       01          5.66
 
# DATASET 5 - STRESS PERIOD 12
# ITMP IRDBND IRDRAI IRDEVP IRDLIN IRDGEO IRDSTR IRDSTG IPTFLG
     1      0      0      0      1      0      0      0      1
# DATASET 7C
# ILAIRCH      QLATFLOW
       01          4.53
 
# DATASET 5 - STRESS PERIOD 13
# ITMP IRDBND IRDRAI IRDEVP IRDLIN IRDGEO IRDSTR IRDSTG IPTFLG
     1      0      0      0      1      0      0      0      1
# DATASET 7C
# ILAIRCH      QLATFLOW
       01          3.40
 
# DATASET 5 - STRESS PERIOD 14
# ITMP IRDBND IRDRAI IRDEVP IRDLIN IRDGEO IRDSTR IRDSTG IPTFLG
     1      0      0      0      1      0      0      0      1
# DATASET 7C
# ILAIRCH      QLATFLOW
       01          2.27
 
# DATASET 5 - STRESS PERIOD 15
# ITMP IRDBND IRDRAI IRDEVP IRDLIN IRDGEO IRDSTR IRDSTG IPTFLG
     1      0      0      0      1      0      0      0      1
# DATASET 7C
# ILAIRCH      QLATFLOW
       01          1.13
 
# DATASET 5 - STRESS PERIOD 16
# ITMP IRDBND IRDRAI IRDEVP IRDLIN IRDGEO IRDSTR IRDSTG IPTFLG
     1      0      0      0      1      0      0      0      1
# DATASET 7C
# ILAIRCH      QLATFLOW
       01           0.0

# DATASET 5 - STRESS PERIOD 17
# ITMP IRDBND IRDRAI IRDEVP IRDLIN IRDGEO IRDSTR IRDSTG IPTFLG
     0      0      0      0      0      0      0      0      0

# DATASET 5 - STRESS PERIOD 18
# ITMP IRDBND IRDRAI IRDEVP IRDLIN IRDGEO IRDSTR IRDSTG IPTFLG
     0      0      0      0      0      0      0      0      0
 
# DATASET 5 - STRESS PERIOD 19
# ITMP IRDBND IRDRAI IRDEVP IRDLIN IRDGEO IRDSTR IRDSTG IPTFLG
     0      0      0      0      0      0      0      0      0
 
# DATASET 5 - STRESS PERIOD 20
# ITMP IRDBND IRDRAI IRDEVP IRDLIN IRDGEO IRDSTR IRDSTG IPTFLG
     0      0      0      0      0      0      0      0      0
 
# DATASET 5 - STRESS PERIOD 21
# ITMP IRDBND IRDRAI IRDEVP IRDLIN IRDGEO IRDSTR IRDSTG IPTFLG
     0      0      0      0      0      0      0      0      0
 
# DATASET 5 - STRESS PERIOD 22
# ITMP IRDBND IRDRAI IRDEVP IRDLIN IRDGEO IRDSTR IRDSTG IPTFLG
     0      0      0      0      0      0      0      0      0
 
# DATASET 5 - STRESS PERIOD 23
# ITMP IRDBND IRDRAI IRDEVP IRDLIN IRDGEO IRDSTR IRDSTG IPTFLG
     0      0      0      0      0      0      0      0      0
